c Result of efficient AIG-to-CNF conversion using package CNF
p cnf 350 1156
2 319 3 4 -5 0
-2 -319 0
-2 5 0
-2 -4 0
-2 -3 0
-3 318 322 323 0
3 -318 0
3 -323 0
3 -322 0
-4 320 321 0
4 -320 0
4 -321 0
-5 87 -283 0
-5 6 39 87 0
5 -87 0
5 -6 283 0
5 -39 283 0
6 347 -7 0
-6 -347 0
-6 7 0
7 348 -8 0
7 -348 -34 0
-7 -348 34 0
-7 348 8 0
8 349 -9 0
8 -349 -28 0
-8 -349 28 0
-8 349 9 0
9 10 -22 0
-9 -10 0
-9 22 0
-10 313 11 0
10 -313 0
10 -11 0
-11 12 18 20 21 0
11 -21 0
11 -12 0
11 -20 0
11 -18 0
-12 310 311 13 15 0
12 -310 0
12 -15 0
12 -13 0
12 -311 0
-13 302 308 309 14 0
13 -14 0
13 -309 0
13 -302 0
13 -308 0
-14 306 307 312 0
14 -306 0
14 -312 0
14 -307 0
-15 303 304 305 16 0
15 -16 0
15 -305 0
15 -303 0
15 -304 0
-16 298 299 17 0
16 -17 0
16 -299 0
16 -298 0
-17 294 295 300 301 0
17 -301 0
17 -300 0
17 -294 0
17 -295 0
-18 292 296 297 19 0
18 -19 0
18 -297 0
18 -292 0
18 -296 0
-19 290 291 0
19 -290 0
19 -291 0
-20 286 293 0
20 -286 0
20 -293 0
-21 287 288 289 0
21 -287 0
21 -289 0
21 -288 0
22 314 -23 0
-22 -314 0
-22 23 0
23 315 -24 0
-23 -315 0
-23 24 0
24 316 -25 0
24 -316 -27 0
-24 -316 27 0
-24 316 25 0
25 317 -26 0
25 -317 -319 0
25 -287 -317 0
-25 317 26 0
-25 287 -317 319 0
-26 288 320 0
26 -288 0
26 -320 0
27 -286 317 0
27 317 -318 0
-27 -317 0
-27 286 318 0
28 10 -29 0
-28 -10 0
-28 29 0
29 314 -30 0
-29 -314 0
-29 30 0
30 315 -31 0
-30 -315 0
-30 31 0
31 316 -32 0
-31 -316 0
-31 32 0
32 317 -33 0
32 -317 -318 0
32 -286 -317 0
-32 317 33 0
-32 286 -317 318 0
-33 287 319 0
33 -287 0
33 -319 0
34 349 -35 0
-34 -349 0
-34 35 0
35 10 -36 0
-35 -10 0
-35 36 0
36 314 -37 0
-36 -314 0
-36 37 0
37 315 -38 0
-37 -315 0
-37 38 0
38 316 317 -318 0
38 -286 316 317 0
-38 -317 0
-38 -316 0
-38 286 318 0
-39 40 50 0
39 -40 0
39 -50 0
40 347 -41 0
-40 -347 0
-40 41 0
41 348 -42 0
41 -348 -49 0
-41 -348 49 0
-41 348 42 0
42 349 -43 0
42 -349 -9 0
-42 -349 9 0
-42 349 43 0
43 10 -44 0
-43 -10 0
-43 44 0
44 314 -45 0
-44 -314 0
-44 45 0
45 315 -46 0
-45 -315 0
-45 46 0
46 316 -47 0
46 -316 -32 0
-46 -316 32 0
-46 316 47 0
47 317 -48 0
47 -317 -320 0
47 -288 -317 0
-47 317 48 0
-47 288 -317 320 0
-48 289 321 0
48 -289 0
48 -321 0
49 349 -28 0
49 -349 -35 0
-49 -349 35 0
-49 349 28 0
50 -51 -52 0
50 -52 -85 0
50 347 -52 0
-50 52 0
-50 -347 51 85 0
51 348 -34 0
-51 -348 0
-51 34 0
-52 347 53 76 77 0
52 -53 0
52 -77 0
52 -347 0
52 -76 0
-53 -348 54 42 0
-53 348 54 75 0
53 -54 0
53 -348 -42 0
53 348 -75 0
54 348 -55 0
54 -348 -70 0
-54 -348 70 0
-54 348 55 0
55 349 -56 0
55 -349 -64 0
-55 -349 64 0
-55 349 56 0
56 10 -57 0
-56 -10 0
-56 57 0
57 314 -58 0
-57 -314 0
-57 58 0
58 315 -59 0
58 -315 -24 0
-58 -315 24 0
-58 315 59 0
59 316 -60 0
59 -316 -62 0
-59 -316 62 0
-59 316 60 0
60 317 -61 0
60 -317 -323 0
60 -291 -317 0
-60 317 61 0
-60 291 -317 323 0
-61 292 324 0
61 -292 0
61 -324 0
62 317 -63 0
62 -317 -321 0
62 -289 -317 0
-62 317 63 0
-62 289 -317 321 0
-63 290 322 0
63 -290 0
63 -322 0
64 10 -65 0
-64 -10 0
-64 65 0
65 314 -66 0
-65 -314 0
-65 66 0
66 315 -67 0
66 -315 -31 0
-66 -315 31 0
-66 315 67 0
67 316 -68 0
67 -316 -47 0
-67 -316 47 0
-67 316 68 0
68 317 -69 0
68 -317 -322 0
68 -290 -317 0
-68 317 69 0
-68 290 -317 322 0
-69 291 323 0
69 -291 0
69 -323 0
70 349 -71 0
70 -349 -43 0
-70 -349 43 0
-70 349 71 0
71 10 -72 0
-71 -10 0
-71 72 0
72 314 -73 0
-72 -314 0
-72 73 0
73 315 -74 0
73 -315 -38 0
-73 -315 38 0
-73 315 74 0
74 316 -62 0
74 -316 -25 0
-74 -316 25 0
-74 316 62 0
75 349 -64 0
75 -349 -71 0
-75 -349 71 0
-75 349 64 0
76 348 -70 0
76 -348 -8 0
-76 -348 8 0
-76 348 70 0
77 348 -78 0
77 -348 -75 0
-77 -348 75 0
-77 348 78 0
78 349 -79 0
78 -349 -56 0
-78 -349 56 0
-78 349 79 0
79 10 -80 0
-79 -10 0
-79 80 0
80 314 -81 0
-80 -314 0
-80 81 0
81 315 -82 0
81 -315 -46 0
-81 -315 46 0
-81 315 82 0
82 316 -83 0
82 -316 -68 0
-82 -316 68 0
-82 316 83 0
83 317 -84 0
83 -317 -324 0
83 -292 -317 0
-83 317 84 0
-83 292 -317 324 0
-84 293 325 0
84 -293 0
84 -325 0
-85 86 7 41 0
85 -86 0
85 -41 0
85 -7 0
86 348 -49 0
-86 -348 0
-86 49 0
87 327 88 -89 0
87 327 88 -124 0
-87 -327 0
-87 -88 0
-87 89 124 0
-88 324 325 326 328 0
88 -328 0
88 -326 0
88 -324 0
88 -325 0
89 90 -122 0
89 346 90 -98 0
-89 -90 0
-89 -346 122 0
-89 98 122 0
-90 91 95 0
90 -91 0
90 -95 0
-91 345 92 0
91 -345 0
91 -92 0
-92 341 342 93 94 0
92 -341 0
92 -94 0
92 -93 0
92 -342 0
-93 337 338 339 340 0
93 -340 0
93 -339 0
93 -337 0
93 -338 0
-94 343 344 0
94 -343 0
94 -344 0
-95 329 330 96 0
95 -96 0
95 -330 0
95 -329 0
-96 334 335 336 97 0
96 -97 0
96 -336 0
96 -334 0
96 -335 0
-97 331 332 333 0
97 -331 0
97 -333 0
97 -332 0
98 -347 -53 0
98 347 -99 0
98 -347 -76 0
-98 347 99 0
-98 -347 53 76 0
-99 348 100 119 0
-99 -348 114 119 0
99 -119 0
99 348 -100 0
99 -348 -114 0
100 349 -101 0
100 -349 -109 0
-100 -349 109 0
-100 349 101 0
101 10 -102 0
-101 -10 0
-101 102 0
102 314 -103 0
102 -314 -23 0
-102 -314 23 0
-102 314 103 0
103 315 -104 0
103 -315 -59 0
-103 -315 59 0
-103 315 104 0
104 316 -105 0
104 -316 -107 0
-104 -316 107 0
-104 316 105 0
105 317 -106 0
105 -317 -327 0
105 -295 -317 0
-105 317 106 0
-105 295 -317 327 0
-106 296 328 0
106 -296 0
106 -328 0
107 317 -108 0
107 -317 -325 0
107 -293 -317 0
-107 317 108 0
-107 293 -317 325 0
-108 294 326 0
108 -294 0
108 -326 0
109 10 -110 0
-109 -10 0
-109 110 0
110 314 -111 0
110 -314 -30 0
-110 -314 30 0
-110 314 111 0
111 315 -112 0
111 -315 -67 0
-111 -315 67 0
-111 315 112 0
112 316 -113 0
112 -316 -83 0
-112 -316 83 0
-112 316 113 0
113 -295 317 0
113 -317 -108 0
113 317 -327 0
-113 -317 108 0
-113 295 317 327 0
114 349 -115 0
114 -349 -79 0
-114 -349 79 0
-114 349 115 0
115 10 -116 0
-115 -10 0
-115 116 0
116 314 -117 0
116 -314 -37 0
-116 -314 37 0
-116 314 117 0
117 315 -118 0
117 -315 -74 0
-117 -315 74 0
-117 315 118 0
118 316 -107 0
118 -316 -60 0
-118 -316 60 0
-118 316 107 0
119 348 -114 0
119 -348 -120 0
119 348 -121 0
-119 -348 120 0
-119 348 114 121 0
-120 55 78 0
120 -55 0
120 -78 0
121 349 -109 0
121 -349 -115 0
-121 -349 115 0
-121 349 109 0
122 -346 -123 0
-122 346 0
-122 123 0
-123 -347 6 0
-123 51 86 6 0
123 -6 0
123 347 -51 0
123 347 -86 0
124 92 95 -126 0
124 92 95 -125 0
-124 -92 0
-124 -95 0
-124 125 126 0
125 -345 346 -123 0
125 -345 346 -40 0
-125 345 0
-125 -346 0
-125 123 40 0
126 127 -281 0
126 127 128 -169 0
-126 -127 0
-126 -128 281 0
-126 169 281 0
127 -345 -346 122 39 0
-127 -39 0
-127 345 0
-127 346 0
-127 -122 0
128 -347 -129 130 0
128 -129 130 131 0
-128 -130 0
-128 129 0
-128 347 -131 0
129 -345 346 0
-129 345 0
-129 -346 0
-130 98 50 0
130 -98 0
130 -50 0
-131 -348 132 147 0
-131 348 147 162 0
131 -147 0
131 348 -162 0
131 -348 -132 0
132 -349 -133 0
132 349 -139 0
-132 349 139 0
-132 -349 133 0
133 10 -134 0
-133 -10 0
-133 134 0
134 -314 -73 0
134 314 -135 0
-134 314 135 0
-134 -314 73 0
135 -315 -118 0
135 315 -136 0
-135 315 136 0
-135 -315 118 0
136 -316 -105 0
136 316 -137 0
-136 316 137 0
-136 -316 105 0
137 317 -138 0
137 -317 -329 0
137 -297 -317 0
-137 317 138 0
-137 297 -317 329 0
-138 298 330 0
138 -298 0
138 -330 0
139 10 -140 0
-139 -10 0
-139 140 0
140 -314 -66 0
140 314 -141 0
-140 314 141 0
-140 -314 66 0
141 -315 -112 0
141 315 -142 0
-141 315 142 0
-141 -315 112 0
142 -316 -143 0
142 316 -145 0
-142 316 145 0
-142 -316 143 0
143 317 -144 0
143 -317 -328 0
143 -296 -317 0
-143 317 144 0
-143 296 -317 328 0
-144 297 329 0
144 -297 0
144 -329 0
145 317 -146 0
145 -317 -330 0
145 -298 -317 0
-145 317 146 0
-145 298 -317 330 0
-146 299 331 0
146 -299 0
146 -331 0
-147 349 133 152 0
-147 -349 148 152 0
147 -152 0
147 349 -133 0
147 -349 -148 0
148 10 -149 0
-148 -10 0
-148 149 0
149 -314 -45 0
149 314 -150 0
-149 314 150 0
-149 -314 45 0
150 -315 -82 0
150 315 -151 0
-150 315 151 0
-150 -315 82 0
151 -316 -113 0
151 316 -143 0
-151 316 143 0
-151 -316 113 0
152 -348 -100 0
152 348 -153 0
152 -348 -161 0
-152 348 153 0
-152 -348 100 161 0
-153 132 154 0
153 -132 0
153 -154 0
154 -349 -139 0
154 349 -155 0
-154 349 155 0
-154 -349 139 0
155 10 -156 0
-155 -10 0
-155 156 0
156 -314 -58 0
156 314 -157 0
-156 314 157 0
-156 -314 58 0
157 -315 -104 0
157 315 -158 0
-157 315 158 0
-157 -315 104 0
158 -316 -137 0
158 316 -159 0
-158 316 159 0
-158 -316 137 0
159 317 -160 0
159 -317 -331 0
159 -299 -317 0
-159 317 160 0
-159 299 -317 331 0
-160 300 332 0
160 -300 0
160 -332 0
161 -349 -101 0
161 349 -148 0
-161 349 148 0
-161 -349 101 0
162 -349 -155 0
162 349 -163 0
-162 349 163 0
-162 -349 155 0
163 10 -164 0
-163 -10 0
-163 164 0
164 -314 -81 0
164 314 -165 0
-164 314 165 0
-164 -314 81 0
165 -315 -151 0
165 315 -166 0
-165 315 166 0
-165 -315 151 0
166 -316 -145 0
166 316 -167 0
-166 316 167 0
-166 -316 145 0
167 317 -168 0
167 -317 -332 0
167 -300 -317 0
-167 317 168 0
-167 300 -317 332 0
-168 301 333 0
168 -301 0
168 -333 0
-169 -170 263 0
-169 171 204 263 0
169 -263 0
169 170 -204 0
169 170 -171 0
170 -346 40 130 0
-170 346 0
-170 -40 0
-170 -130 0
-171 172 185 0
-171 348 349 0
-171 349 185 0
-171 348 172 0
171 -349 -172 0
171 -348 -185 0
172 313 11 -173 0
172 -313 11 -80 0
-172 -11 0
-172 -313 80 0
-172 313 173 0
173 -314 -165 0
173 314 -174 0
-173 314 174 0
-173 -314 165 0
174 315 -175 0
174 -315 -180 0
-174 -315 180 0
-174 315 175 0
175 -316 -176 0
175 316 -178 0
-175 316 178 0
-175 -316 176 0
176 317 -177 0
176 -317 -338 0
176 -306 -317 0
-176 317 177 0
-176 306 -317 338 0
-177 307 339 0
177 -307 0
177 -339 0
178 317 -179 0
178 -317 -340 0
178 -308 -317 0
-178 317 179 0
-178 308 -317 340 0
-179 309 341 0
179 -309 0
179 -341 0
180 316 -181 0
180 -316 -183 0
-180 -316 183 0
-180 316 181 0
181 317 -182 0
181 -317 -336 0
181 -304 -317 0
-181 317 182 0
-181 304 -317 336 0
-182 305 337 0
182 -305 0
182 -337 0
183 317 -184 0
183 -317 -334 0
183 -302 -317 0
-183 317 184 0
-183 302 -317 334 0
-184 303 335 0
184 -303 0
184 -335 0
-185 -349 186 191 0
-185 349 172 191 0
185 -191 0
185 349 -172 0
185 -349 -186 0
186 313 11 -187 0
186 -313 11 -65 0
-186 -11 0
-186 -313 65 0
-186 313 187 0
187 -314 -141 0
187 314 -188 0
-187 314 188 0
-187 -314 141 0
188 315 -189 0
188 -315 -190 0
-188 -315 190 0
-188 315 189 0
189 316 -176 0
189 -316 -181 0
-189 -316 181 0
-189 316 176 0
190 -316 -167 0
190 316 -183 0
-190 316 183 0
-190 -316 167 0
191 313 11 -192 0
191 -313 11 -57 0
-191 -11 0
-191 -313 57 0
-191 313 192 0
192 -314 -157 0
192 314 -193 0
-192 314 193 0
-192 -314 157 0
193 315 -194 0
193 -315 -199 0
-193 -315 199 0
-193 315 194 0
194 316 -195 0
194 -316 -197 0
-194 -316 197 0
-194 316 195 0
195 317 -196 0
195 -317 -339 0
195 -307 -317 0
-195 317 196 0
-195 307 -317 339 0
-196 308 340 0
196 -308 0
196 -340 0
197 317 -198 0
197 -317 -337 0
197 -305 -317 0
-197 317 198 0
-197 305 -317 337 0
-198 306 338 0
198 -306 0
198 -338 0
199 316 -200 0
199 -316 -202 0
-199 -316 202 0
-199 316 200 0
200 317 -201 0
200 -317 -335 0
200 -303 -317 0
-200 317 201 0
-200 303 -317 335 0
-201 304 336 0
201 -304 0
201 -336 0
202 317 -203 0
202 -317 -333 0
202 -301 -317 0
-202 317 203 0
-202 301 -317 333 0
-203 302 334 0
203 -302 0
203 -334 0
-204 346 -11 0
-204 346 205 237 0
204 -346 0
204 11 -205 0
204 11 -237 0
-205 -313 116 214 0
-205 313 206 214 0
205 -214 0
205 313 -206 0
205 -313 -116 0
206 314 -207 0
206 -314 -212 0
-206 -314 212 0
-206 314 207 0
207 315 -208 0
207 -315 -211 0
-207 -315 211 0
-207 315 208 0
208 -316 -195 0
208 316 -209 0
-208 316 209 0
-208 -316 195 0
209 317 -210 0
209 -317 -341 0
209 -309 -317 0
-209 317 210 0
-209 309 -317 341 0
-210 310 342 0
210 -310 0
210 -342 0
211 316 -197 0
211 -316 -200 0
-211 -316 200 0
-211 316 197 0
212 -315 -136 0
212 315 -213 0
-212 315 213 0
-212 -315 136 0
213 -316 -159 0
213 316 -202 0
-213 316 202 0
-213 -316 159 0
214 -215 222 0
214 348 222 -230 0
-214 -222 0
-214 215 230 0
-214 -348 215 0
-215 -313 110 0
-215 313 216 0
215 -313 -110 0
215 313 -216 0
-216 314 217 0
-216 -314 221 0
216 -314 -221 0
216 314 -217 0
-217 315 218 0
-217 -315 189 0
217 -315 -189 0
217 315 -218 0
218 -316 -178 0
218 316 -219 0
-218 316 219 0
-218 -316 178 0
219 317 -220 0
219 -317 -342 0
219 -310 -317 0
-219 317 220 0
-219 310 -317 342 0
-220 311 343 0
220 -311 0
220 -343 0
221 -315 -142 0
221 315 -190 0
-221 315 190 0
-221 -315 142 0
222 -348 -349 0
222 -349 215 223 0
-222 349 0
-222 348 -215 0
-222 348 -223 0
-223 -313 102 0
-223 313 224 0
223 -313 -102 0
223 313 -224 0
-224 314 225 0
-224 -314 229 0
224 -314 -229 0
224 314 -225 0
-225 315 226 0
-225 -315 194 0
225 -315 -194 0
225 315 -226 0
226 -316 -209 0
226 316 -227 0
-226 316 227 0
-226 -316 209 0
227 317 -228 0
227 -317 -343 0
227 -311 -317 0
-227 317 228 0
-227 311 -317 343 0
-228 312 344 0
228 -312 0
228 -344 0
229 -315 -158 0
229 315 -199 0
-229 315 199 0
-229 -315 158 0
-230 223 231 0
230 -223 0
230 -231 0
-231 -313 149 0
-231 313 232 0
231 -313 -149 0
231 313 -232 0
-232 314 233 0
-232 -314 236 0
232 -314 -236 0
232 314 -233 0
-233 315 234 0
-233 -315 175 0
233 -315 -175 0
233 315 -234 0
234 -316 -219 0
234 316 -235 0
-234 316 235 0
-234 -316 219 0
235 -313 317 0
235 -317 -228 0
235 317 -345 0
-235 -317 228 0
-235 313 317 345 0
236 -315 -166 0
236 315 -180 0
-236 315 180 0
-236 -315 166 0
237 347 -258 0
237 313 347 -238 0
-237 -347 0
-237 -313 258 0
-237 238 258 0
-238 314 241 0
-238 239 240 241 0
238 -241 0
238 -314 -240 0
238 -314 -239 0
239 348 -193 0
239 348 349 -174 0
-239 -348 0
-239 -349 193 0
-239 174 193 0
240 315 -211 0
240 -315 -213 0
-240 -315 213 0
-240 315 211 0
-241 242 247 0
-241 -348 -349 247 0
241 -247 0
241 348 -242 0
241 349 -242 0
-242 -314 188 0
-242 314 243 0
242 -314 -188 0
242 314 -243 0
-243 -315 218 0
-243 315 244 0
243 -315 -218 0
243 315 -244 0
-244 316 245 0
-244 -316 235 0
244 -316 -235 0
244 316 -245 0
245 -315 317 0
245 -317 -246 0
245 317 -347 0
-245 -317 246 0
-245 315 317 347 0
-246 314 346 0
246 -314 0
246 -346 0
247 314 -256 0
247 314 348 -248 0
-247 -314 0
-247 -348 256 0
-247 248 256 0
-248 -315 226 254 0
-248 315 249 254 0
248 -254 0
248 315 -249 0
248 -315 -226 0
249 -250 -252 0
249 316 -250 0
-249 250 0
-249 -316 252 0
-250 316 -317 251 0
-250 316 317 348 0
250 -316 0
250 -317 -251 0
250 317 -348 0
-251 315 347 0
251 -315 0
251 -347 0
252 -314 317 0
252 -317 -253 0
252 317 -346 0
-252 -317 253 0
-252 314 317 346 0
-253 313 345 0
253 -313 0
253 -345 0
254 315 349 -255 0
254 -315 349 -234 0
-254 -349 0
-254 315 255 0
-254 -315 234 0
-255 -316 245 0
-255 316 348 0
-255 316 317 0
255 -316 -245 0
255 316 -317 -348 0
256 -315 -208 0
256 315 -257 0
-256 315 257 0
-256 -315 208 0
257 -316 -227 0
257 316 -252 0
-257 316 252 0
-257 -316 227 0
-258 348 259 260 0
-258 230 259 260 0
258 -260 0
258 -259 0
258 -348 -230 0
259 -349 -231 0
259 -348 -349 -215 0
-259 349 0
-259 348 231 0
-259 215 231 0
260 -313 -262 0
260 -313 349 -261 0
-260 313 0
-260 -349 262 0
-260 261 262 0
-261 140 164 0
-261 -348 140 0
261 -140 0
261 348 -164 0
-262 -348 134 0
-262 134 140 156 0
262 -134 0
262 348 -156 0
262 348 -140 0
-263 264 275 0
-263 -346 -347 275 0
263 -275 0
263 346 -264 0
263 347 -264 0
-264 349 186 267 0
-264 -349 265 267 0
264 -267 0
264 349 -186 0
264 -349 -265 0
265 313 11 -266 0
265 -313 11 -44 0
-265 -11 0
-265 -313 44 0
-265 313 266 0
266 -314 -150 0
266 314 -236 0
-266 314 236 0
-266 -314 150 0
-267 348 185 268 0
-267 -348 268 270 0
267 -268 0
267 -348 -270 0
267 348 -185 0
268 313 11 -269 0
268 -313 11 -72 0
-268 -11 0
-268 -313 72 0
-268 313 269 0
269 -314 -135 0
269 314 -240 0
-269 314 240 0
-269 -314 135 0
-270 -349 271 273 0
-270 349 265 271 0
270 -271 0
270 349 -265 0
270 -349 -273 0
271 313 11 -272 0
271 -313 11 -22 0
-271 -11 0
-271 -313 22 0
-271 313 272 0
272 -314 -103 0
272 314 -229 0
-272 314 229 0
-272 -314 103 0
273 313 11 -274 0
273 -313 11 -29 0
-273 -11 0
-273 -313 29 0
-273 313 274 0
274 -314 -111 0
274 314 -221 0
-274 314 221 0
-274 -314 111 0
-275 345 131 276 0
275 -276 0
275 -131 0
275 -345 0
-276 348 270 278 0
-276 -348 277 278 0
276 -278 0
276 -348 -277 0
276 348 -270 0
-277 154 162 0
277 -154 0
277 -162 0
-278 -349 163 279 0
-278 349 273 279 0
278 -279 0
278 349 -273 0
278 -349 -163 0
279 313 11 -280 0
279 -313 11 -36 0
-279 -11 0
-279 313 280 0
-279 -313 36 0
-280 314 212 0
-280 -314 117 0
280 -314 -117 0
280 314 -212 0
-281 -348 121 282 0
-281 348 161 282 0
281 -282 0
281 348 -161 0
281 -348 -121 0
282 -347 -77 0
282 -347 -99 0
-282 347 0
-282 99 77 0
-283 327 96 284 0
283 -284 0
283 -96 0
283 -327 0
-284 346 88 91 285 0
284 -346 0
284 -285 0
284 -91 0
284 -88 0
-285 329 330 0
285 -329 0
285 -330 0
-350 0
2 0

